letting n =  10
letting blocks =  [[1, 6], [1, 7], [2, 4], [2, 5], [2, 6], [2, 10], [3, 6], [4, 3], [4, 4], [5, 1], [5, 2], [5, 5], [6, 2], [6, 4], [7, 2], [7, 7], [7, 8], [7, 9], [7, 10], [8, 2], [9, 1], [9, 3], [9, 7], [9, 8], [10, 6], [10, 10]]
